gen	cost
1	1481
2	1469
3	1457
4	1454
5	1414
6	1388
7	1360
8	1357
9	1351
10	1346
11	1336
12	1327
13	1315
14	1306
15	1288
16	1282
17	1277
18	1276
19	1265
20	1251
21	1236
22	1233
23	1230
24	1221
25	1219
26	1215
27	1200
28	1197
29	1188
30	1186
31	1183
32	1180
33	1179
34	1179
35	1175
36	1175
37	1175
38	1172
39	1170
40	1168
41	1164
42	1162
43	1162
44	1162
45	1160
46	1160
47	1160
48	1160
49	1160
50	1160

